
Gurobi 9.5.2 (mac64[arm]) logging started Fri Apr 14 20:56:34 2023

Set parameter LogFile to value "./ccga_results/2023-04-14 20-56-33-784/MSP_TimeStampConvert_gurobi_log.txt"

Gurobi 9.5.2 (mac64[arm]) logging started Fri Apr 14 20:56:34 2023

Set parameter LogFile to value "./ccga_results/2023-04-14 20-56-33-784/MSP_TimeStampConvert_gurobi_log.txt"
Set parameter TimeLimit to value 180
Gurobi Optimizer version 9.5.2 build v9.5.2rc0 (mac64[arm])
Thread count: 8 physical cores, 8 logical processors, using up to 8 threads
Optimize a model with 600 rows, 457 columns and 1482 nonzeros
Model fingerprint: 0xe63f0f4b
Variable types: 25 continuous, 432 integer (432 binary)
Coefficient statistics:
  Matrix range     [1e+00, 1e+00]
  Objective range  [1e+00, 1e+00]
  Bounds range     [1e+03, 1e+03]
  RHS range        [1e+00, 1e+00]
Found heuristic solution: objective 24000.000000

Explored 0 nodes (0 simplex iterations) in 0.00 seconds (0.00 work units)
Thread count was 1 (of 8 available processors)

Solution count 1: 24000 

Optimal solution found (tolerance 5.00e-02)
Best objective 2.400000000000e+04, best bound 2.400000000000e+04, gap 0.0000%

User-callback calls 21, time in user-callback 0.00 sec
Gurobi Optimizer version 9.5.2 build v9.5.2rc0 (mac64[arm])
Thread count: 8 physical cores, 8 logical processors, using up to 8 threads
Optimize a model with 2149 rows, 961 columns and 6467 nonzeros
Model fingerprint: 0x3a847a0c
Variable types: 481 continuous, 480 integer (480 binary)
Coefficient statistics:
  Matrix range     [2e-01, 8e+02]
  Objective range  [1e+00, 1e+00]
  Bounds range     [1e+03, 1e+03]
  RHS range        [1e+00, 3e+06]

MIP start from previous solve did not produce a new incumbent solution

Presolve removed 581 rows and 206 columns
Presolve time: 0.02s
Presolved: 1568 rows, 755 columns, 5270 nonzeros
Variable types: 404 continuous, 351 integer (351 binary)
Found heuristic solution: objective 15162.810074

Root relaxation: objective 2.000000e+04, 603 iterations, 0.01 seconds (0.01 work units)

    Nodes    |    Current Node    |     Objective Bounds      |     Work
 Expl Unexpl |  Obj  Depth IntInf | Incumbent    BestBd   Gap | It/Node Time

     0     0 20000.0000    0    4 15162.8101 20000.0000  31.9%     -    0s
H    0     0                    19955.692008 20000.0000  0.22%     -    0s

Explored 1 nodes (854 simplex iterations) in 0.04 seconds (0.06 work units)
Thread count was 8 (of 8 available processors)

Solution count 2: 19955.7 15162.8 

Optimal solution found (tolerance 5.00e-02)
Best objective 1.995569200780e+04, best bound 2.000000000000e+04, gap 0.2220%

User-callback calls 667, time in user-callback 0.00 sec
Gurobi Optimizer version 9.5.2 build v9.5.2rc0 (mac64[arm])
Thread count: 8 physical cores, 8 logical processors, using up to 8 threads
Optimize a model with 3698 rows, 1465 columns and 11452 nonzeros
Model fingerprint: 0x5accaedf
Variable types: 937 continuous, 528 integer (528 binary)
Coefficient statistics:
  Matrix range     [2e-01, 8e+02]
  Objective range  [1e+00, 1e+00]
  Bounds range     [1e+03, 1e+03]
  RHS range        [1e+00, 3e+06]

MIP start from previous solve did not produce a new incumbent solution

Presolve removed 1783 rows and 613 columns
Presolve time: 0.05s
Presolved: 1915 rows, 852 columns, 6507 nonzeros
Variable types: 582 continuous, 270 integer (270 binary)
Found heuristic solution: objective 8929.7848729

Root relaxation: objective 1.568079e+04, 793 iterations, 0.01 seconds (0.01 work units)

    Nodes    |    Current Node    |     Objective Bounds      |     Work
 Expl Unexpl |  Obj  Depth IntInf | Incumbent    BestBd   Gap | It/Node Time

     0     0 15680.7927    0    7 8929.78487 15680.7927  75.6%     -    0s
H    0     0                    15421.111111 15680.7927  1.68%     -    0s

Cutting planes:
  Gomory: 2
  Cover: 2
  Implied bound: 10
  Clique: 6
  MIR: 5
  Flow cover: 4
  RLT: 2
  Relax-and-lift: 3

Explored 1 nodes (1153 simplex iterations) in 0.10 seconds (0.11 work units)
Thread count was 8 (of 8 available processors)

Solution count 2: 15421.1 8929.78 

Optimal solution found (tolerance 5.00e-02)
Best objective 1.542111111111e+04, best bound 1.568079268569e+04, gap 1.6839%

User-callback calls 866, time in user-callback 0.00 sec
Gurobi Optimizer version 9.5.2 build v9.5.2rc0 (mac64[arm])
Thread count: 8 physical cores, 8 logical processors, using up to 8 threads
Optimize a model with 5247 rows, 1969 columns and 16435 nonzeros
Model fingerprint: 0x96858d64
Variable types: 1393 continuous, 576 integer (576 binary)
Coefficient statistics:
  Matrix range     [2e-01, 8e+02]
  Objective range  [1e+00, 1e+00]
  Bounds range     [1e+03, 1e+03]
  RHS range        [1e+00, 3e+06]

MIP start from previous solve did not produce a new incumbent solution

Presolve removed 2252 rows and 730 columns
Presolve time: 0.05s
Presolved: 2995 rows, 1239 columns, 10424 nonzeros
Variable types: 969 continuous, 270 integer (270 binary)
Found heuristic solution: objective 8627.9193494

Root relaxation: objective 1.384346e+04, 1500 iterations, 0.01 seconds (0.02 work units)

    Nodes    |    Current Node    |     Objective Bounds      |     Work
 Expl Unexpl |  Obj  Depth IntInf | Incumbent    BestBd   Gap | It/Node Time

     0     0 13843.4586    0   17 8627.91935 13843.4586  60.4%     -    0s
H    0     0                    13368.162029 13843.4586  3.56%     -    0s

Cutting planes:
  Gomory: 4
  Cover: 4
  Implied bound: 30
  Clique: 8
  MIR: 12
  Flow cover: 16
  RLT: 3
  Relax-and-lift: 18

Explored 1 nodes (1923 simplex iterations) in 0.15 seconds (0.20 work units)
Thread count was 8 (of 8 available processors)

Solution count 2: 13368.2 8627.92 

Optimal solution found (tolerance 5.00e-02)
Best objective 1.336816202922e+04, best bound 1.384345863858e+04, gap 3.5554%

User-callback calls 884, time in user-callback 0.00 sec
Gurobi Optimizer version 9.5.2 build v9.5.2rc0 (mac64[arm])
Thread count: 8 physical cores, 8 logical processors, using up to 8 threads
Optimize a model with 6796 rows, 2473 columns and 21418 nonzeros
Model fingerprint: 0xac7e3987
Variable types: 1849 continuous, 624 integer (624 binary)
Coefficient statistics:
  Matrix range     [2e-01, 8e+02]
  Objective range  [1e+00, 1e+00]
  Bounds range     [1e+03, 1e+03]
  RHS range        [1e+00, 3e+06]

MIP start from previous solve did not produce a new incumbent solution

Presolve removed 2775 rows and 864 columns
Presolve time: 0.07s
Presolved: 4021 rows, 1609 columns, 14134 nonzeros
Variable types: 1351 continuous, 258 integer (258 binary)
Found heuristic solution: objective 7820.1506372

Root relaxation: objective 1.079979e+04, 2556 iterations, 0.04 seconds (0.06 work units)

    Nodes    |    Current Node    |     Objective Bounds      |     Work
 Expl Unexpl |  Obj  Depth IntInf | Incumbent    BestBd   Gap | It/Node Time

     0     0 10799.7887    0   40 7820.15064 10799.7887  38.1%     -    0s
H    0     0                    9967.7752299 10784.3383  8.19%     -    0s
     0     0 10784.3383    0   50 9967.77523 10784.3383  8.19%     -    0s
H    0     0                    10134.455556 10784.3383  6.41%     -    0s
     0     0 10784.3383    0   52 10134.4556 10784.3383  6.41%     -    0s
     0     0 10754.7430    0   63 10134.4556 10754.7430  6.12%     -    0s
     0     0 10754.7430    0   66 10134.4556 10754.7430  6.12%     -    0s
     0     0 10743.9095    0   66 10134.4556 10743.9095  6.01%     -    0s
     0     0 10743.7632    0   78 10134.4556 10743.7632  6.01%     -    0s
H    0     0                    10191.162121 10743.7138  5.42%     -    0s
     0     0 10743.7138    0   78 10191.1621 10743.7138  5.42%     -    0s
     0     0 10743.6831    0   78 10191.1621 10743.6831  5.42%     -    0s
     0     0 10743.2109    0   49 10191.1621 10743.2109  5.42%     -    0s
     0     0 10743.2109    0   49 10191.1621 10743.2109  5.42%     -    0s
     0     0 10742.9218    0   67 10191.1621 10742.9218  5.41%     -    0s
H    0     0                    10309.448366 10742.9218  4.20%     -    0s

Cutting planes:
  Learned: 1
  Gomory: 6
  Cover: 4
  Implied bound: 25
  MIR: 66
  Flow cover: 63
  Relax-and-lift: 18

Explored 1 nodes (4485 simplex iterations) in 0.47 seconds (0.54 work units)
Thread count was 8 (of 8 available processors)

Solution count 5: 10309.4 10191.2 10134.5 ... 7820.15

Optimal solution found (tolerance 5.00e-02)
Best objective 1.030944836559e+04, best bound 1.074292182963e+04, gap 4.2046%

User-callback calls 1079, time in user-callback 0.00 sec
Gurobi Optimizer version 9.5.2 build v9.5.2rc0 (mac64[arm])
Thread count: 8 physical cores, 8 logical processors, using up to 8 threads
Optimize a model with 8345 rows, 2977 columns and 26403 nonzeros
Model fingerprint: 0x3b56500f
Variable types: 2305 continuous, 672 integer (672 binary)
Coefficient statistics:
  Matrix range     [2e-01, 8e+02]
  Objective range  [1e+00, 1e+00]
  Bounds range     [1e+03, 1e+03]
  RHS range        [1e+00, 3e+06]

MIP start from previous solve did not produce a new incumbent solution

Presolve removed 3442 rows and 1017 columns
Presolve time: 0.09s
Presolved: 4903 rows, 1960 columns, 16774 nonzeros
Variable types: 1731 continuous, 229 integer (226 binary)
Found heuristic solution: objective 6578.6684448

Root relaxation: objective 8.999789e+03, 3122 iterations, 0.05 seconds (0.08 work units)

    Nodes    |    Current Node    |     Objective Bounds      |     Work
 Expl Unexpl |  Obj  Depth IntInf | Incumbent    BestBd   Gap | It/Node Time

     0     0 8999.78875    0   40 6578.66844 8999.78875  36.8%     -    0s
     0     0 8984.37652    0   68 6578.66844 8984.37652  36.6%     -    0s
     0     0 8984.37652    0   60 6578.66844 8984.37652  36.6%     -    0s
     0     0 8955.79721    0   64 6578.66844 8955.79721  36.1%     -    0s
     0     0 8955.67121    0   69 6578.66844 8955.67121  36.1%     -    0s
H    0     0                    8241.5489146 8955.67121  8.66%     -    0s
     0     0 8955.67121    0   69 8241.54891 8955.67121  8.66%     -    0s
     0     0 8945.16132    0   54 8241.54891 8945.16132  8.54%     -    0s
H    0     0                    8482.5524233 8939.74492  5.39%     -    0s
     0     0 8939.74492    0   41 8482.55242 8939.74492  5.39%     -    0s
     0     0 8933.72586    0   45 8482.55242 8933.72586  5.32%     -    0s
     0     0 8918.91813    0   49 8482.55242 8918.91813  5.14%     -    0s
     0     0 8918.91813    0   52 8482.55242 8918.91813  5.14%     -    0s
     0     0 8918.91813    0   45 8482.55242 8918.91813  5.14%     -    0s
     0     0 8864.40310    0   52 8482.55242 8864.40310  4.50%     -    0s

Cutting planes:
  Learned: 1
  Gomory: 8
  Cover: 11
  Implied bound: 35
  Clique: 8
  MIR: 78
  StrongCG: 2
  Flow cover: 68
  RLT: 3
  Relax-and-lift: 25

Explored 1 nodes (5693 simplex iterations) in 0.53 seconds (0.61 work units)
Thread count was 8 (of 8 available processors)

Solution count 3: 8482.55 8241.55 6578.67 

Optimal solution found (tolerance 5.00e-02)
Best objective 8.482552423327e+03, best bound 8.864403099246e+03, gap 4.5016%

User-callback calls 1066, time in user-callback 0.00 sec
Gurobi Optimizer version 9.5.2 build v9.5.2rc0 (mac64[arm])
Thread count: 8 physical cores, 8 logical processors, using up to 8 threads
Optimize a model with 9894 rows, 3481 columns and 31388 nonzeros
Model fingerprint: 0xdcb6cc31
Variable types: 2761 continuous, 720 integer (720 binary)
Coefficient statistics:
  Matrix range     [2e-01, 8e+02]
  Objective range  [1e+00, 1e+00]
  Bounds range     [1e+03, 1e+03]
  RHS range        [1e+00, 3e+06]

MIP start from previous solve did not produce a new incumbent solution

Presolve removed 4610 rows and 1358 columns
Presolve time: 0.09s
Presolved: 5284 rows, 2123 columns, 18064 nonzeros
Variable types: 1900 continuous, 223 integer (220 binary)
Found heuristic solution: objective 5888.6684448

Root relaxation: objective 8.049789e+03, 3969 iterations, 0.06 seconds (0.06 work units)

    Nodes    |    Current Node    |     Objective Bounds      |     Work
 Expl Unexpl |  Obj  Depth IntInf | Incumbent    BestBd   Gap | It/Node Time

     0     0 8049.78875    0   45 5888.66844 8049.78875  36.7%     -    0s
H    0     0                    7473.7555556 8031.07478  7.46%     -    0s
     0     0 8031.07478    0   53 7473.75556 8031.07478  7.46%     -    0s
     0     0 8025.29592    0   55 7473.75556 8025.29592  7.38%     -    0s
     0     0 8024.12525    0   58 7473.75556 8024.12525  7.36%     -    0s
     0     0 8024.12525    0   58 7473.75556 8024.12525  7.36%     -    0s
     0     0 8005.70933    0   52 7473.75556 8005.70933  7.12%     -    0s
     0     0 7987.22268    0   65 7473.75556 7987.22268  6.87%     -    0s
     0     0 7987.22268    0   68 7473.75556 7987.22268  6.87%     -    0s
     0     0 7982.31249    0   76 7473.75556 7982.31249  6.80%     -    0s
     0     0 7981.07285    0   82 7473.75556 7981.07285  6.79%     -    0s
     0     0 7981.07285    0   82 7473.75556 7981.07285  6.79%     -    0s
H    0     0                    7577.3180311 7972.15970  5.21%     -    0s
     0     0 7972.15970    0   77 7577.31803 7972.15970  5.21%     -    0s
     0     0 7972.15533    0   79 7577.31803 7972.15533  5.21%     -    0s
     0     0 7971.55717    0   81 7577.31803 7971.55717  5.20%     -    0s
     0     0 7971.55717    0   82 7577.31803 7971.55717  5.20%     -    0s
     0     0 7971.55717    0   79 7577.31803 7971.55717  5.20%     -    0s
     0     0 7971.55717    0   80 7577.31803 7971.55717  5.20%     -    0s
H    0     0                    7612.3067052 7971.55717  4.72%     -    0s

Cutting planes:
  Gomory: 5
  Cover: 6
  Implied bound: 22
  Clique: 2
  MIR: 114
  Flow cover: 79
  RLT: 4
  Relax-and-lift: 14

Explored 1 nodes (7606 simplex iterations) in 0.67 seconds (0.77 work units)
Thread count was 8 (of 8 available processors)

Solution count 4: 7612.31 7577.32 7473.76 5888.67 

Optimal solution found (tolerance 5.00e-02)
Best objective 7.612306705165e+03, best bound 7.971557171504e+03, gap 4.7193%

User-callback calls 1179, time in user-callback 0.00 sec
Gurobi Optimizer version 9.5.2 build v9.5.2rc0 (mac64[arm])
Thread count: 8 physical cores, 8 logical processors, using up to 8 threads
Optimize a model with 11443 rows, 3985 columns and 36373 nonzeros
Model fingerprint: 0x4836e7de
Variable types: 3217 continuous, 768 integer (768 binary)
Coefficient statistics:
  Matrix range     [2e-01, 8e+02]
  Objective range  [1e+00, 1e+00]
  Bounds range     [1e+03, 1e+03]
  RHS range        [1e+00, 3e+06]

MIP start from previous solve did not produce a new incumbent solution

Presolve removed 5177 rows and 1481 columns
Presolve time: 0.11s
Presolved: 6266 rows, 2504 columns, 21424 nonzeros
Variable types: 2284 continuous, 220 integer (217 binary)
Found heuristic solution: objective 5268.6684448

Root relaxation: objective 7.299789e+03, 4786 iterations, 0.09 seconds (0.09 work units)

    Nodes    |    Current Node    |     Objective Bounds      |     Work
 Expl Unexpl |  Obj  Depth IntInf | Incumbent    BestBd   Gap | It/Node Time

     0     0 7299.78875    0   42 5268.66844 7299.78875  38.6%     -    0s
H    0     0                    6720.0624007 7287.11218  8.44%     -    0s
     0     0 7287.11218    0   59 6720.06240 7287.11218  8.44%     -    0s
     0     0 7279.34385    0   58 6720.06240 7279.34385  8.32%     -    0s
     0     0 7279.34385    0   58 6720.06240 7279.34385  8.32%     -    0s
H    0     0                    6735.9382554 7237.64740  7.45%     -    0s
     0     0 7237.64740    0   70 6735.93826 7237.64740  7.45%     -    0s
     0     0 7237.64730    0   68 6735.93826 7237.64730  7.45%     -    0s
     0     0 7236.95380    0   72 6735.93826 7236.95380  7.44%     -    0s
     0     0 7236.95380    0   73 6735.93826 7236.95380  7.44%     -    0s
     0     0 7235.84410    0   67 6735.93826 7235.84410  7.42%     -    0s
     0     0 7235.62788    0   76 6735.93826 7235.62788  7.42%     -    0s
     0     0 7235.62788    0   74 6735.93826 7235.62788  7.42%     -    0s
H    0     0                    6870.1674815 7234.40826  5.30%     -    0s
     0     0 7234.40826    0   86 6870.16748 7234.40826  5.30%     -    0s
     0     0 7234.40826    0   82 6870.16748 7234.40826  5.30%     -    0s
     0     0 7230.20269    0   70 6870.16748 7230.20269  5.24%     -    0s
     0     0 7230.11198    0   87 6870.16748 7230.11198  5.24%     -    0s
     0     0 7230.11198    0   81 6870.16748 7230.11198  5.24%     -    0s
     0     0 7228.51774    0   72 6870.16748 7228.51774  5.22%     -    0s
     0     0 7228.51774    0   70 6870.16748 7228.51774  5.22%     -    0s
     0     0 7228.51774    0   81 6870.16748 7228.51774  5.22%     -    0s
     0     0 7228.51774    0   81 6870.16748 7228.51774  5.22%     -    0s
H    0     0                    6888.9894597 7228.51774  4.93%     -    0s
     0     0 7228.51774    0   59 6888.98946 7228.51774  4.93%     -    0s

Cutting planes:
  Gomory: 5
  Cover: 7
  Implied bound: 28
  MIR: 147
  StrongCG: 1
  Flow cover: 89
  RLT: 3
  Relax-and-lift: 18

Explored 1 nodes (10633 simplex iterations) in 0.99 seconds (1.13 work units)
Thread count was 8 (of 8 available processors)

Solution count 5: 6888.99 6870.17 6735.94 ... 5268.67

Optimal solution found (tolerance 5.00e-02)
Best objective 6.888989459701e+03, best bound 7.228517737481e+03, gap 4.9286%

User-callback calls 1288, time in user-callback 0.00 sec
Gurobi Optimizer version 9.5.2 build v9.5.2rc0 (mac64[arm])
Thread count: 8 physical cores, 8 logical processors, using up to 8 threads
Optimize a model with 12992 rows, 4489 columns and 41358 nonzeros
Model fingerprint: 0x90b9c990
Variable types: 3673 continuous, 816 integer (816 binary)
Coefficient statistics:
  Matrix range     [2e-01, 8e+02]
  Objective range  [1e+00, 1e+00]
  Bounds range     [1e+03, 1e+03]
  RHS range        [1e+00, 3e+06]

MIP start from previous solve did not produce a new incumbent solution

Presolve removed 6428 rows and 1830 columns
Presolve time: 0.12s
Presolved: 6564 rows, 2659 columns, 22389 nonzeros
Variable types: 2449 continuous, 210 integer (207 binary)
Found heuristic solution: objective 4591.1934419

Root relaxation: objective 5.912728e+03, 4678 iterations, 0.08 seconds (0.08 work units)

    Nodes    |    Current Node    |     Objective Bounds      |     Work
 Expl Unexpl |  Obj  Depth IntInf | Incumbent    BestBd   Gap | It/Node Time

     0     0 5912.72787    0   41 4591.19344 5912.72787  28.8%     -    0s
     0     0 5904.08950    0   51 4591.19344 5904.08950  28.6%     -    0s
H    0     0                    5070.0823308 5904.08950  16.4%     -    0s
     0     0 5904.08950    0   51 5070.08233 5904.08950  16.4%     -    0s
H    0     0                    5095.0823308 5904.08950  15.9%     -    0s
     0     0 5860.81748    0   64 5095.08233 5860.81748  15.0%     -    0s
     0     0 5859.96014    0   61 5095.08233 5859.96014  15.0%     -    0s
     0     0 5859.96014    0   67 5095.08233 5859.96014  15.0%     -    0s
     0     0 5833.92497    0   74 5095.08233 5833.92497  14.5%     -    0s
     0     0 5833.92497    0   74 5095.08233 5833.92497  14.5%     -    0s
     0     0 5833.26697    0   68 5095.08233 5833.26697  14.5%     -    0s
H    0     0                    5296.1111111 5833.26697  10.1%     -    0s
     0     0 5833.26697    0   73 5296.11111 5833.26697  10.1%     -    0s
     0     0 5832.95343    0   60 5296.11111 5832.95343  10.1%     -    0s
     0     0 5832.93193    0   68 5296.11111 5832.93193  10.1%     -    0s
     0     0 5832.93193    0   70 5296.11111 5832.93193  10.1%     -    0s
     0     0 5832.93193    0   82 5296.11111 5832.93193  10.1%     -    0s
     0     0 5832.73667    0   79 5296.11111 5832.73667  10.1%     -    0s
     0     0 5832.73667    0   54 5296.11111 5832.73667  10.1%     -    0s
     0     2 5832.73667    0   48 5296.11111 5832.73667  10.1%     -    1s
H   50    58                    5396.9532962 5779.68446  7.09%   263    1s
H  342   214                    5433.3333333 5779.68219  6.37%   149    1s
H  567   329                    5457.2222222 5779.68219  5.91%   139    1s
*  816   457              33    5471.1934419 5774.61900  5.55%   139    2s

Cutting planes:
  Gomory: 10
  Cover: 2
  Implied bound: 46
  MIR: 256
  Flow cover: 200
  Inf proof: 3
  RLT: 9
  Relax-and-lift: 74

Explored 1316 nodes (191625 simplex iterations) in 2.61 seconds (3.05 work units)
Thread count was 8 (of 8 available processors)

Solution count 8: 5471.19 5457.22 5433.33 ... 4591.19

Optimal solution found (tolerance 5.00e-02)
Best objective 5.471193441904e+03, best bound 5.737423608611e+03, gap 4.8660%

User-callback calls 4010, time in user-callback 0.00 sec
Gurobi Optimizer version 9.5.2 build v9.5.2rc0 (mac64[arm])
Thread count: 8 physical cores, 8 logical processors, using up to 8 threads
Optimize a model with 14541 rows, 4993 columns and 46343 nonzeros
Model fingerprint: 0xa20f37ee
Variable types: 4129 continuous, 864 integer (864 binary)
Coefficient statistics:
  Matrix range     [2e-01, 8e+02]
  Objective range  [1e+00, 1e+00]
  Bounds range     [1e+03, 1e+03]
  RHS range        [1e+00, 3e+06]

MIP start from previous solve did not produce a new incumbent solution

Presolve removed 7157 rows and 1963 columns
Presolve time: 0.13s
Presolved: 7384 rows, 3030 columns, 25105 nonzeros
Variable types: 2833 continuous, 197 integer (194 binary)
Found heuristic solution: objective 4175.1739774

Root relaxation: objective 4.748265e+03, 4526 iterations, 0.06 seconds (0.06 work units)

    Nodes    |    Current Node    |     Objective Bounds      |     Work
 Expl Unexpl |  Obj  Depth IntInf | Incumbent    BestBd   Gap | It/Node Time

     0     0 4748.26466    0   31 4175.17398 4748.26466  13.7%     -    0s
     0     0 4725.60022    0   52 4175.17398 4725.60022  13.2%     -    0s
H    0     0                    4286.6666667 4725.60022  10.2%     -    0s
     0     0 4724.16002    0   47 4286.66667 4724.16002  10.2%     -    0s
     0     0 4724.16002    0   53 4286.66667 4724.16002  10.2%     -    0s
     0     0 4719.09357    0   54 4286.66667 4719.09357  10.1%     -    0s
     0     0 4719.00006    0   57 4286.66667 4719.00006  10.1%     -    0s
     0     0 4718.96560    0   57 4286.66667 4718.96560  10.1%     -    0s
     0     0 4718.95155    0   60 4286.66667 4718.95155  10.1%     -    0s
     0     0 4718.94488    0   60 4286.66667 4718.94488  10.1%     -    0s
H    0     0                    4311.9532962 4696.32712  8.91%     -    0s
     0     0 4696.32712    0   51 4311.95330 4696.32712  8.91%     -    0s
H    0     0                    4342.5088518 4696.32712  8.15%     -    0s
     0     0 4695.82848    0   48 4342.50885 4695.82848  8.14%     -    0s
     0     0 4695.79796    0   51 4342.50885 4695.79796  8.14%     -    0s
     0     0 4695.79796    0   51 4342.50885 4695.79796  8.14%     -    0s
H    0     0                    4456.1111111 4695.79796  5.38%     -    0s
     0     0 4686.11752    0   50 4456.11111 4686.11752  5.16%     -    0s
     0     0 4685.41661    0   69 4456.11111 4685.41661  5.15%     -    0s
     0     0 4685.41462    0   69 4456.11111 4685.41462  5.15%     -    0s
     0     0 4684.64415    0   61 4456.11111 4684.64415  5.13%     -    0s
     0     0 4684.59939    0   67 4456.11111 4684.59939  5.13%     -    0s
     0     0 4684.59939    0   67 4456.11111 4684.59939  5.13%     -    0s
     0     0 4680.38587    0   71 4456.11111 4680.38587  5.03%     -    0s
     0     0 4679.53438    0   75 4456.11111 4679.53438  5.01%     -    0s
     0     0 4679.25816    0   72 4456.11111 4679.25816  5.01%     -    0s
     0     0 4679.25385    0   72 4456.11111 4679.25385  5.01%     -    0s
     0     0 4677.65055    0   57 4456.11111 4677.65055  4.97%     -    0s

Cutting planes:
  Gomory: 4
  Implied bound: 29
  MIR: 135
  Flow cover: 112
  RLT: 7
  Relax-and-lift: 67

Explored 1 nodes (8152 simplex iterations) in 0.98 seconds (1.14 work units)
Thread count was 8 (of 8 available processors)

Solution count 5: 4456.11 4342.51 4311.95 ... 4175.17

Optimal solution found (tolerance 5.00e-02)
Best objective 4.456111111111e+03, best bound 4.677650553969e+03, gap 4.9716%

User-callback calls 1324, time in user-callback 0.00 sec
